0000000000000000
0111111110000000
0111111111000000
0111111111110000
0000001111110000
0000000111111000
0000000011111000
0000000011111000
0000000011111000
0000000011111000
0000000111111000
0000000111111000
0110011111110000
0111111111100000
0111111111000000
0011111100000000
